3 5 2 10
50 0
75 0
100 0
150 0
250 0
25 50 10 0
1
1
2
2
3
3
4
4
5
5
75 50 10 0
1
1
2
2
3
3
4
4
5
5
25 25 10 18 02
25 50 15 18 22
25 75 05 17 21
50 75 20 16 18
75 75 25 16 17
75 50 15 17 03
75 25 30 18 24
50 25 55 15 18
37 37 10 00 03
63 63 45 22 02
